4
909 519
610 588
165 574
786 248
5
675 312
718 922
628 987
323 235
797 294
6
326 612
644 515
447 288
351 935
885 29
219 44
7
887 503
960 773
14 476
748 478
915 441
951 404
848 368
8
753 811
785 785
509 867
35 602
660 87
985 137
790 751
627 622
9
406 693
444 128
684 270
238 651
643 170
392 132
804 860
767 716
798 769
10
400 150
200 100
40 500
732 245
55 20
100 1000
400 400
500 600
200 800
900 900
0
